Version identifier: 22.1.0.0 | 2022-03-09 | 1a383f8ce
CPXPARAM_Threads                                 1
CPXPARAM_MIP_Strategy_VariableSelect             3
CPXPARAM_TimeLimit                               599.99434019499995
Tried aggregator 1 time.
MIP Presolve eliminated 19 rows and 651 columns.
MIP Presolve modified 1 coefficients.
Reduced MIP has 1512 rows, 1953 columns, and 17827 nonzeros.
Reduced MIP has 1953 binaries, 0 generals, 0 SOSs, and 0 indicators.
Presolve time = 0.02 sec. (10.16 ticks)
Probing time = 0.00 sec. (2.57 ticks)
Tried aggregator 1 time.
Detecting symmetries...
Reduced MIP has 1512 rows, 1953 columns, and 17827 nonzeros.
Reduced MIP has 1953 binaries, 0 generals, 0 SOSs, and 0 indicators.
Presolve time = 0.01 sec. (11.41 ticks)
Probing time = 0.00 sec. (2.57 ticks)
Clique table members: 1074.
MIP emphasis: balance optimality and feasibility.
MIP search method: dynamic search.
Parallel mode: none, using 1 thread.
Root relaxation solution time = 0.02 sec. (18.28 ticks)

        Nodes                                         Cuts/
   Node  Left     Objective  IInf  Best Integer    Best Bound    ItCnt     Gap

      0     0    infeasible                                        464         

Root node processing (before b&c):
  Real time             =    0.14 sec. (88.05 ticks)
Sequential b&c:
  Real time             =    0.00 sec. (0.00 ticks)
                          ------------
Total (root+branch&cut) =    0.14 sec. (88.05 ticks)
Primal:	216
Dual:	216
Status:	Optimal
Time:	0.16433
Sequence:
	0
